lbl,CUST NO.,READY TIME,XCOORD.,YCOORD.,DEMAND,DUE DATE,SERVICE TIME
15,190,55,28,33,20,235,90
15,5,64,25,26,20,244,90
15,10,155,24,26,20,335,90
15,193,248,21,26,20,428,90
15,46,339,21,25,20,519,90
15,128,432,22,22,10,612,90
15,106,525,24,24,10,705,90
15,167,621,30,24,20,801,90
15,34,714,30,27,10,894,90
15,95,805,29,28,10,985,90
15,158,898,30,31,20,1078,90
